20
1 0 2
2 0 2
2 1 3
3 0 2
3 1 2
3 2 1
4 0 2
4 1 3
4 2 3
4 3 1
5 0 1
5 1 1
5 2 2
5 3 3
5 4 1
6 0 1
6 1 2
6 2 2
6 3 3
6 4 2
6 5 3
7 0 2
7 1 2
7 2 2
7 3 2
7 4 2
7 5 1
7 6 2
8 0 3
8 1 1
8 2 2
8 3 3
8 4 1
8 5 3
8 6 1
8 7 1
9 0 2
9 1 1
9 2 1
9 3 1
9 4 1
9 5 1
9 6 1
9 7 2
9 8 1
10 0 1
10 1 2
10 2 2
10 3 1
10 4 3
10 5 2
10 6 2
10 7 2
10 8 3
10 9 3
11 0 1
11 1 2
11 2 2
11 3 3
11 4 2
11 5 3
11 6 2
11 7 2
11 8 1
11 9 1
11 10 2
12 0 1
12 1 2
12 2 3
12 3 1
12 4 3
12 5 2
12 6 1
12 7 1
12 8 1
12 9 1
12 10 3
12 11 1
13 0 2
13 1 2
13 2 1
13 3 1
13 4 3
13 5 1
13 6 2
13 7 1
13 8 2
13 9 3
13 10 3
13 11 1
13 12 1
14 0 3
14 1 3
14 2 1
14 3 3
14 4 3
14 5 3
14 6 3
14 7 3
14 8 2
14 9 2
14 10 3
14 11 3
14 12 2
14 13 1
15 0 1
15 1 2
15 2 3
15 3 3
15 4 2
15 5 1
15 6 1
15 7 3
15 8 2
15 9 2
15 10 1
15 11 2
15 12 2
15 13 1
15 14 3
16 0 2
16 1 3
16 2 3
16 3 2
16 4 2
16 5 2
16 6 3
16 7 3
16 8 3
16 9 1
16 10 1
16 11 3
16 12 2
16 13 1
16 14 1
16 15 2
17 0 1
17 1 3
17 2 3
17 3 1
17 4 3
17 5 1
17 6 3
17 7 2
17 8 1
17 9 3
17 10 1
17 11 2
17 12 2
17 13 1
17 14 1
17 15 1
17 16 3
18 0 3
18 1 2
18 2 2
18 3 1
18 4 2
18 5 1
18 6 1
18 7 2
18 8 3
18 9 2
18 10 2
18 11 1
18 12 1
18 13 2
18 14 3
18 15 3
18 16 1
18 17 2
19 0 2
19 1 1
19 2 3
19 3 2
19 4 1
19 5 2
19 6 3
19 7 2
19 8 3
19 9 2
19 10 2
19 11 3
19 12 1
19 13 3
19 14 1
19 15 2
19 16 3
19 17 2
19 18 1
